Set parameter Username
Academic license - for non-commercial use only - expires 2022-06-20
Gurobi Optimizer version 9.5.1 build v9.5.1rc2 (mac64[x86])
Thread count: 2 physical cores, 4 logical processors, using up to 4 threads
Optimize a model with 1681 rows, 1600 columns and 6360 nonzeros
Model fingerprint: 0x45c48d37
Variable types: 0 continuous, 1600 integer (1600 binary)
Coefficient statistics:
  Matrix range     [1e+00, 5e+02]
  Objective range  [1e+00, 8e+00]
  Bounds range     [1e+00, 1e+00]
  RHS range        [1e+00, 8e+00]
Found heuristic solution: objective 119.0198913
Presolve removed 58 rows and 0 columns
Presolve time: 0.03s
Presolved: 1623 rows, 1600 columns, 6365 nonzeros
Variable types: 0 continuous, 1600 integer (1600 binary)
Found heuristic solution: objective 111.2237020

Root relaxation: objective 3.458723e+01, 456 iterations, 0.02 seconds (0.02 work units)

    Nodes    |    Current Node    |     Objective Bounds      |     Work
 Expl Unexpl |  Obj  Depth IntInf | Incumbent    BestBd   Gap | It/Node Time

     0     0   34.58723    0  135  111.22370   34.58723  68.9%     -    0s
H    0     0                      88.7360898   34.58723  61.0%     -    0s
H    0     0                      45.4426987   34.58723  23.9%     -    0s
H    0     0                      42.0284851   34.58723  17.7%     -    0s
     0     0   34.76469    0  129   42.02849   34.76469  17.3%     -    0s
H    0     0                      41.9508446   34.76469  17.1%     -    0s
H    0     0                      40.7792717   34.76469  14.7%     -    0s
     0     0   34.87903    0  133   40.77927   34.87903  14.5%     -    0s
H    0     0                      38.7213494   34.87903  9.92%     -    0s
     0     0   35.33352    0  129   38.72135   35.33352  8.75%     -    0s
     0     0   35.34064    0  145   38.72135   35.34064  8.73%     -    0s
     0     0   35.34101    0  146   38.72135   35.34101  8.73%     -    0s
     0     0   35.51571    0  127   38.72135   35.51571  8.28%     -    0s
     0     0   35.51571    0  135   38.72135   35.51571  8.28%     -    0s
     0     0   35.51571    0  127   38.72135   35.51571  8.28%     -    0s
H    0     0                      37.1421356   35.51571  4.38%     -    0s
     0     0   35.52525    0  130   37.14214   35.52525  4.35%     -    0s
     0     0   35.58653    0  143   37.14214   35.58653  4.19%     -    1s
     0     0   35.58653    0  136   37.14214   35.58653  4.19%     -    1s
     0     0   35.58653    0  138   37.14214   35.58653  4.19%     -    1s
H    0     0                      36.5563492   35.58653  2.65%     -    1s
     0     0   35.58653    0  137   36.55635   35.58653  2.65%     -    1s
     0     0   35.58843    0  148   36.55635   35.58843  2.65%     -    1s
     0     0   35.58843    0  133   36.55635   35.58843  2.65%     -    1s
     0     0   35.58843    0  122   36.55635   35.58843  2.65%     -    1s
     0     0   35.58843    0  143   36.55635   35.58843  2.65%     -    1s
     0     0   35.59145    0  141   36.55635   35.59145  2.64%     -    1s
     0     0   35.60665    0  140   36.55635   35.60665  2.60%     -    1s
     0     0   35.60721    0  138   36.55635   35.60721  2.60%     -    1s
     0     0   35.62350    0  132   36.55635   35.62350  2.55%     -    1s
     0     0   35.62856    0  133   36.55635   35.62856  2.54%     -    1s
     0     0   35.63604    0  135   36.55635   35.63604  2.52%     -    1s
     0     0   35.63662    0  136   36.55635   35.63662  2.52%     -    1s
     0     0   35.63691    0  136   36.55635   35.63691  2.52%     -    1s
     0     0   35.63691    0  136   36.55635   35.63691  2.52%     -    1s
     0     0   35.63691    0  135   36.55635   35.63691  2.52%     -    1s
H    0     0                      36.1421356   35.63691  1.40%     -    1s
     0     0   35.63948    0  123   36.14214   35.63948  1.39%     -    1s
     0     0   35.63948    0  107   36.14214   35.63948  1.39%     -    1s
     0     0   35.64093    0  102   36.14214   35.64093  1.39%     -    1s
     0     0   35.67615    0  109   36.14214   35.67615  1.29%     -    1s
     0     0   35.67615    0  109   36.14214   35.67615  1.29%     -    1s
     0     0   35.69201    0  115   36.14214   35.69201  1.25%     -    1s
     0     0   35.69201    0   99   36.14214   35.69201  1.25%     -    1s
     0     0   35.69201    0  103   36.14214   35.69201  1.25%     -    1s
     0     0   35.69201    0  108   36.14214   35.69201  1.25%     -    1s
     0     0   35.69201    0  109   36.14214   35.69201  1.25%     -    1s
     0     0   35.69201    0  109   36.14214   35.69201  1.25%     -    1s
     0     2   35.69710    0  109   36.14214   35.69710  1.23%     -    1s

Cutting planes:
  Lift-and-project: 2
  MIR: 12
  StrongCG: 6
  GUB cover: 9
  Zero half: 3

Explored 91 nodes (6773 simplex iterations) in 1.92 seconds (0.80 work units)
Thread count was 4 (of 4 available processors)

Solution count 10: 36.1421 36.5563 37.1421 ... 111.224

Optimal solution found (tolerance 1.00e-04)
Best objective 3.614213562373e+01, best bound 3.614213562373e+01, gap 0.0000%
Gurobi Optimizer version 9.5.1 build v9.5.1rc2 (mac64[x86])
Thread count: 2 physical cores, 4 logical processors, using up to 4 threads
Optimize a model with 4841 rows, 6960 columns and 25292 nonzeros
Model fingerprint: 0x470bb008
Variable types: 5360 continuous, 1600 integer (1600 binary)
Coefficient statistics:
  Matrix range     [1e+00, 5e+02]
  Objective range  [1e+00, 8e+00]
  Bounds range     [1e+00, 1e+00]
  RHS range        [1e+00, 8e+00]

MIP start from previous solve produced solution with objective 36.1421 (0.01s)
Loaded MIP start from previous solve with objective 36.1421

Presolve removed 104 rows and 164 columns
Presolve time: 0.12s
Presolved: 4737 rows, 6796 columns, 24931 nonzeros
Variable types: 5197 continuous, 1599 integer (1599 binary)

Root relaxation: objective 3.458723e+01, 572 iterations, 0.04 seconds (0.03 work units)

    Nodes    |    Current Node    |     Objective Bounds      |     Work
 Expl Unexpl |  Obj  Depth IntInf | Incumbent    BestBd   Gap | It/Node Time

     0     0   34.58723    0  135   36.14214   34.58723  4.30%     -    0s
     0     0   34.75053    0  129   36.14214   34.75053  3.85%     -    0s
     0     0   34.75053    0  137   36.14214   34.75053  3.85%     -    0s
     0     0   34.76068    0  133   36.14214   34.76068  3.82%     -    0s
     0     0   34.88475    0  124   36.14214   34.88475  3.48%     -    0s
     0     0   34.88475    0  124   36.14214   34.88475  3.48%     -    0s
     0     0   35.22526    0  106   36.14214   35.22526  2.54%     -    0s
     0     0   35.32535    0  129   36.14214   35.32535  2.26%     -    0s
     0     0   35.44924    0  143   36.14214   35.44924  1.92%     -    1s
     0     0   35.44924    0  131   36.14214   35.44924  1.92%     -    1s
     0     0   35.44924    0   96   36.14214   35.44924  1.92%     -    1s
     0     0   35.46774    0  124   36.14214   35.46774  1.87%     -    1s
     0     0   35.48099    0  130   36.14214   35.48099  1.83%     -    1s
     0     0   35.52211    0  136   36.14214   35.52211  1.72%     -    1s
     0     0   35.52316    0  134   36.14214   35.52316  1.71%     -    1s
     0     0   35.52316    0  134   36.14214   35.52316  1.71%     -    1s
     0     0   35.55596    0  110   36.14214   35.55596  1.62%     -    1s
     0     0   35.56355    0  118   36.14214   35.56355  1.60%     -    1s
     0     0   35.56361    0  126   36.14214   35.56361  1.60%     -    1s
     0     0   35.56361    0  126   36.14214   35.56361  1.60%     -    1s
     0     0   35.56361    0  126   36.14214   35.56361  1.60%     -    1s
     0     0   35.56656    0  127   36.14214   35.56656  1.59%     -    1s
     0     0   35.56656    0  107   36.14214   35.56656  1.59%     -    1s
     0     0   35.56656    0  123   36.14214   35.56656  1.59%     -    1s
     0     0   35.58161    0  119   36.14214   35.58161  1.55%     -    1s
     0     0   35.59639    0  124   36.14214   35.59639  1.51%     -    1s
     0     0   35.60615    0  127   36.14214   35.60615  1.48%     -    1s
     0     0   35.61005    0  122   36.14214   35.61005  1.47%     -    1s
     0     0   35.61005    0  122   36.14214   35.61005  1.47%     -    1s
     0     0   35.61005    0  122   36.14214   35.61005  1.47%     -    1s
     0     2   35.61633    0  122   36.14214   35.61633  1.45%     -    1s

Cutting planes:
  MIR: 11
  StrongCG: 3
  Flow cover: 30
  GUB cover: 13
  Zero half: 7
  Mod-K: 1

Explored 145 nodes (7314 simplex iterations) in 1.93 seconds (0.94 work units)
Thread count was 4 (of 4 available processors)

Solution count 1: 36.1421 

Optimal solution found (tolerance 1.00e-04)
Best objective 3.614213562373e+01, best bound 3.614213562373e+01, gap 0.0000%
